#######################################
### Exact MIP solver for the HHCRSP ###
#######################################
-- Instance file: new-instances/HHCRSP_50_10_19_1.0_C_C.txt
-- Max threads: 4
-- Time limit: 999999 seconds
-- Use initial solution: No
Trivial flow violations prevented generating 6276 variables.
Model exported.
Version identifier: 20.1.0.0 | 2020-11-10 | 9bedb6d68
CPXPARAM_Threads                                 4
CPXPARAM_TimeLimit                               999999
Parallel mode: deterministic, using up to 4 threads for concurrent optimization:
 * Starting dual Simplex on 1 thread...
 * Starting Barrier on 3 threads...
Tried aggregator 1 time.
LP Presolve eliminated 1470 rows and 456 columns.
Reduced LP has 7606 rows, 7308 columns, and 67295 nonzeros.
Presolve time = 0.03 sec. (19.23 ticks)
Symmetry aggregator did 8083 additional substitutions.
Initializing dual steep norms . . .

Iteration log . . .
Iteration:     1   Dual objective     =             1.333333

Dual crossover.
  Dual:  Fixing 94 variables.
       93 DMoves:  Infeasibility  5.77315973e-15  Objective  1.15333333e+02
        0 DMoves:  Infeasibility  2.77555756e-15  Objective  1.15333333e+02
  Dual:  Pushed 4, exchanged 90.
  Primal:  Fixing 44 variables.
       43 PMoves:  Infeasibility  0.00000000e+00  Objective  1.15333333e+02
        0 PMoves:  Infeasibility  0.00000000e+00  Objective  1.15333333e+02
  Primal:  Pushed 15, exchanged 29.

Dual simplex solved model.


Solution status from MIP model:
-- Processing time: 0.07 sec.
-- Memory used: 73.3525 MB
-- Best bound: inf
-- Obj value: 115.333
-- Gap: inf%
-- Total distance: 346
-- Total tardiness: 0
-- Largest tardiness: 0
